
-4.75
-4.6
-4.5
-4.35
-4.25
-4.25
-4.1
-4.0
-3.95
-3.8
-3.45
-3.2
-2.9
-2.5
-2.05
-1.65
-1.35
-1.05
-0.9
-0.9
-0.9
-0.9
-0.9
-0.9
-0.8
-0.8
-0.8
-0.8
-0.75
-0.75
-0.75
-0.75
-0.75
-0.75
-0.75
-0.75
-0.75
-0.75
-4.8
-4.75
-4.6
-4.4
-4.4
-4.25
-4.05
-3.95
-3.85
-3.7
-3.55
-3.25
-2.95
-2.6
-2.2
-1.85
-1.5
-1.2
-0.95
-0.95
-0.95
-0.95
-0.95
-0.95
-0.9
-0.9
-0.9
-0.9
-0.85
-0.85
-0.8
-0.8
-0.8
-0.8
-0.8
-0.8
-0.8
-0.8
-0.8